
Gurobi 6.5.2 (linux64) logging started Tue Sep 20 21:21:33 2016


Gurobi 6.5.2 (linux64) logging started Tue Sep 20 21:21:33 2016

Optimize a model with 201 rows, 2575 columns and 5259 nonzeros
Coefficient statistics:
  Matrix range    [1e+00, 2e+00]
  Objective range [1e+00, 1e+02]
  Bounds range    [1e+00, 1e+00]
  RHS range       [1e+00, 1e+00]
Presolve removed 69 rows and 33 columns
Presolve time: 0.01s
Presolved: 132 rows, 2542 columns, 5097 nonzeros
Variable types: 0 continuous, 2542 integer (2542 binary)

Root relaxation: objective 1.139500e+03, 146 iterations, 0.00 seconds

    Nodes    |    Current Node    |     Objective Bounds      |     Work
 Expl Unexpl |  Obj  Depth IntInf | Incumbent    BestBd   Gap | It/Node Time

     0     0 1139.50000    0   14          - 1139.50000      -     -    0s
     0     0 1143.50000    0    6          - 1143.50000      -     -    0s
     0     0 1144.50000    0    6          - 1144.50000      -     -    0s
     0     0 1145.00000    0    8          - 1145.00000      -     -    0s
     0     0 1145.00000    0    8          - 1145.00000      -     -    0s
     0     2 1145.00000    0    8          - 1145.00000      -     -    0s
*  743   589              34    1183.0000000 1146.00000  3.13%   5.2    0s
*  841   584              42    1170.0000000 1146.00000  2.05%   5.4    0s
H 1084   709                    1165.0000000 1146.50000  1.59%   5.2    0s
H 1092   679                    1161.0000000 1146.78571  1.22%   5.4    0s
H 1119   662                    1156.0000000 1150.36603  0.49%   5.6    1s
* 1208   633              70    1155.0000000 1152.40000  0.23%   6.5    1s

Cutting planes:
  Gomory: 15
  Cover: 6
  Clique: 4
  MIR: 1
  Flow cover: 4
  Zero half: 13
  Lazy constraints: 16

Explored 1273 nodes (8299 simplex iterations) in 1.88 seconds
Thread count was 8 (of 8 available processors)

Optimal solution found (tolerance 1.00e-04)
Best objective 1.155000000000e+03, best bound 1.155000000000e+03, gap 0.0%
